proyfinal/src/viki/013/experimentInOfficeAgust.take6.output/85f25db3-c00f-4912-a621-1c5bb7fc6639.als.out
Reading from standard input... Use '--help' for help.
============================[ Problem Statistics ]=============================
|                                                                             |
|  Number of variables:         87638                                         |
|  Number of clauses:          161767                                         |
|  Parse time:                   0.03 s                                       |
|                                                                             |
============================[ Search Statistics ]==============================
| Conflicts |          ORIGINAL         |          LEARNT          | Progress |
|           |    Vars  Clauses Literals |    Limit  Clauses Lit/Cl |          |
===============================================================================
|       100 |   61878   103535   258231 |    37962      100      7 | 29.394 % |
|       250 |   61860   103461   258060 |    41759      249     33 | 29.414 % |
|       475 |   61860   103461   258060 |    45935      474     61 | 29.414 % |
|       812 |   61843   103396   257915 |    50528      774     60 | 29.434 % |
|      1318 |   61843   103396   257915 |    55581     1280     74 | 29.434 % |
|      2077 |   61843   103396   257915 |    61139     2039     70 | 29.434 % |
|      3216 |   61843   103396   257915 |    67253     3178     62 | 29.434 % |
|      4924 |   61842   103352   257825 |    73978     4882     66 | 29.435 % |
|      7486 |   61842   103352   257825 |    81376     7444     76 | 29.435 % |
|     11330 |   51074    71561   179952 |    89514    11218     87 | 41.722 % |
===============================================================================
restarts              : 62
conflicts             : 15798          (7586 /sec)
decisions             : 55604          (0.00 % random) (26702 /sec)
propagations          : 21277380       (10217735 /sec)
conflict literals     : 1210868        (53.25 % deleted)
Memory used           : 31.50 MB
CPU time              : 2.0824 s

UNSATISFIABLE
